34701925645275761405011,9,1,2,012,10,1,2,04,15,1,2,07,6,1,2,08,6,1,2,013,13,1,2,01,14,1,2,02,2,1,2,08,11,1,2,01,8,1,2,03,4,1,2,08,4,1,2,013,14,1,2,02,11,1,2,04,5,1,2,010,6,1,2,013,1,1,2,09,3,1,2,01,11,1,2,04,5,1,2,02,13,1,2,02,9,1,2,011,5,1,2,03,13,1,2,015,4,1,2,01,9,1,2,012,8,1,2,04,12,1,2,06,1,1,2,03,3,1,2,07,15,1,2,015,7,1,2,05,3,1,2,05,6,1,2,013,15,1,2,013,9,1,2,09,7,1,2,02,14,1,2,06,9,1,2,014,14,1,2,07,9,1,2,04,13,1,2,07,7,1,2,03,6,1,2,04,11,1,2,09,5,1,2,012,15,1,2,09,2,1,2,05,11,1,2,02,8,1,2,0